NAME : sim71.93043.tour
COMMENT : Length = 93043
COMMENT : Found by LKH [Keld Helsgaun] Sat Sep 15 14:40:24 2018
TYPE : TOUR
DIMENSION : 71
TOUR_SECTION
1
50
25
14
11
28
54
67
24
71
15
2
38
47
13
21
56
22
23
46
29
9
43
48
44
39
3
31
60
16
10
40
34
5
61
12
58
59
42
51
8
70
53
27
17
65
26
7
4
33
20
63
57
6
35
30
36
52
64
41
45
55
49
32
19
68
69
18
37
66
62
-1
EOF
